c This file is generated by v2cnfMtr
c Generated on Mon Nov  9 21:24:28 2015
p cnf 205 502
-1 -3 -23 0
1 23 0
3 23 0
-3 -4 -20 0
3 20 0
4 20 0
-2 -39 -22 0
2 22 0
39 22 0
-5 -39 -21 0
5 21 0
39 21 0
-26 -65 -18 0
26 18 0
65 18 0
-65 -91 -19 0
65 19 0
91 19 0
6 24 0
-6 -24 0
7 25 0
-7 -25 0
-1 -24 27 0
1 -27 0
24 -27 0
-23 -6 28 0
23 -28 0
6 -28 0
-4 -24 29 0
4 -29 0
24 -29 0
-23 -6 30 0
23 -30 0
6 -30 0
-27 -25 31 0
27 -31 0
25 -31 0
-28 -7 32 0
28 -32 0
7 -32 0
-29 -25 33 0
29 -33 0
25 -33 0
-30 -7 34 0
30 -34 0
7 -34 0
31 32 -35 0
-31 35 0
-32 35 0
33 35 -36 0
-33 36 0
-35 36 0
36 34 -26 0
-36 26 0
-34 26 0
8 37 0
-8 -37 0
9 38 0
-9 -38 0
-1 -37 40 0
1 -40 0
37 -40 0
-20 -8 41 0
20 -41 0
8 -41 0
-4 -37 42 0
4 -42 0
37 -42 0
-20 -8 43 0
20 -43 0
8 -43 0
-40 -38 44 0
40 -44 0
38 -44 0
-41 -9 45 0
41 -45 0
9 -45 0
-42 -38 46 0
42 -46 0
38 -46 0
-43 -9 47 0
43 -47 0
9 -47 0
44 45 -48 0
-44 48 0
-45 48 0
46 48 -49 0
-46 49 0
-48 49 0
49 47 -39 0
-49 39 0
-47 39 0
10 50 0
-10 -50 0
11 51 0
-11 -51 0
-1 -50 53 0
1 -53 0
50 -53 0
-20 -10 54 0
20 -54 0
10 -54 0
-4 -50 55 0
4 -55 0
50 -55 0
-20 -10 56 0
20 -56 0
10 -56 0
-53 -51 57 0
53 -57 0
51 -57 0
-54 -11 58 0
54 -58 0
11 -58 0
-55 -51 59 0
55 -59 0
51 -59 0
-56 -11 60 0
56 -60 0
11 -60 0
57 58 -61 0
-57 61 0
-58 61 0
59 61 -62 0
-59 62 0
-61 62 0
62 60 -52 0
-62 52 0
-60 52 0
12 63 0
-12 -63 0
13 64 0
-13 -64 0
-1 -63 66 0
1 -66 0
63 -66 0
-22 -12 67 0
22 -67 0
12 -67 0
-4 -63 68 0
4 -68 0
63 -68 0
-22 -12 69 0
22 -69 0
12 -69 0
-66 -64 70 0
66 -70 0
64 -70 0
-67 -13 71 0
67 -71 0
13 -71 0
-68 -64 72 0
68 -72 0
64 -72 0
-69 -13 73 0
69 -73 0
13 -73 0
70 71 -74 0
-70 74 0
-71 74 0
72 74 -75 0
-72 75 0
-74 75 0
75 73 -65 0
-75 65 0
-73 65 0
14 76 0
-14 -76 0
15 77 0
-15 -77 0
-1 -76 79 0
1 -79 0
76 -79 0
-22 -14 80 0
22 -80 0
14 -80 0
-4 -76 81 0
4 -81 0
76 -81 0
-22 -14 82 0
22 -82 0
14 -82 0
-79 -77 83 0
79 -83 0
77 -83 0
-80 -15 84 0
80 -84 0
15 -84 0
-81 -77 85 0
81 -85 0
77 -85 0
-82 -15 86 0
82 -86 0
15 -86 0
83 84 -87 0
-83 87 0
-84 87 0
85 87 -88 0
-85 88 0
-87 88 0
88 86 -78 0
-88 78 0
-86 78 0
16 89 0
-16 -89 0
17 90 0
-17 -90 0
-1 -89 92 0
1 -92 0
89 -92 0
-21 -16 93 0
21 -93 0
16 -93 0
-4 -89 94 0
4 -94 0
89 -94 0
-21 -16 95 0
21 -95 0
16 -95 0
-92 -90 96 0
92 -96 0
90 -96 0
-93 -17 97 0
93 -97 0
17 -97 0
-94 -90 98 0
94 -98 0
90 -98 0
-95 -17 99 0
95 -99 0
17 -99 0
96 97 -100 0
-96 100 0
-97 100 0
98 100 -101 0
-98 101 0
-100 101 0
101 99 -91 0
-101 91 0
-99 91 0
c The second circuit:
-102 -104 -124 0
102 124 0
104 124 0
-104 -105 -121 0
104 121 0
105 121 0
-103 -140 -123 0
103 123 0
140 123 0
-106 -140 -122 0
106 122 0
140 122 0
-127 -166 -119 0
127 119 0
166 119 0
-166 -192 -120 0
166 120 0
192 120 0
107 125 0
-107 -125 0
108 126 0
-108 -126 0
-102 -125 128 0
102 -128 0
125 -128 0
-124 -107 129 0
124 -129 0
107 -129 0
-105 -125 130 0
105 -130 0
125 -130 0
-124 -107 131 0
124 -131 0
107 -131 0
-128 -126 132 0
128 -132 0
126 -132 0
-129 -108 133 0
129 -133 0
108 -133 0
-130 -126 134 0
130 -134 0
126 -134 0
-131 -108 135 0
131 -135 0
108 -135 0
132 133 -136 0
-132 136 0
-133 136 0
134 136 -137 0
-134 137 0
-136 137 0
137 135 -127 0
-137 127 0
-135 127 0
109 138 0
-109 -138 0
110 139 0
-110 -139 0
-102 -138 141 0
102 -141 0
138 -141 0
-121 -109 142 0
121 -142 0
109 -142 0
-105 -138 143 0
105 -143 0
138 -143 0
-121 -109 144 0
121 -144 0
109 -144 0
-141 -139 145 0
141 -145 0
139 -145 0
-142 -110 146 0
142 -146 0
110 -146 0
-143 -139 147 0
143 -147 0
139 -147 0
-144 -110 148 0
144 -148 0
110 -148 0
145 146 -149 0
-145 149 0
-146 149 0
147 149 -150 0
-147 150 0
-149 150 0
150 148 -140 0
-150 140 0
-148 140 0
111 151 0
-111 -151 0
112 152 0
-112 -152 0
-102 -151 154 0
102 -154 0
151 -154 0
-121 -111 155 0
121 -155 0
111 -155 0
-105 -151 156 0
105 -156 0
151 -156 0
-121 -111 157 0
121 -157 0
111 -157 0
-154 -152 158 0
154 -158 0
152 -158 0
-155 -112 159 0
155 -159 0
112 -159 0
-156 -152 160 0
156 -160 0
152 -160 0
-157 -112 161 0
157 -161 0
112 -161 0
158 159 -162 0
-158 162 0
-159 162 0
160 162 -163 0
-160 163 0
-162 163 0
163 161 -153 0
-163 153 0
-161 153 0
113 164 0
-113 -164 0
114 165 0
-114 -165 0
-102 -164 167 0
102 -167 0
164 -167 0
-123 -113 168 0
123 -168 0
113 -168 0
-105 -164 169 0
105 -169 0
164 -169 0
-123 -113 170 0
123 -170 0
113 -170 0
-167 -165 171 0
167 -171 0
165 -171 0
-168 -114 172 0
168 -172 0
114 -172 0
-169 -165 173 0
169 -173 0
165 -173 0
-170 -114 174 0
170 -174 0
114 -174 0
171 172 -175 0
-171 175 0
-172 175 0
173 175 -176 0
-173 176 0
-175 176 0
176 174 -166 0
-176 166 0
-174 166 0
115 177 0
-115 -177 0
116 178 0
-116 -178 0
-102 -177 180 0
102 -180 0
177 -180 0
-123 -115 181 0
123 -181 0
115 -181 0
-105 -177 182 0
105 -182 0
177 -182 0
-123 -115 183 0
123 -183 0
115 -183 0
-180 -178 184 0
180 -184 0
178 -184 0
-181 -116 185 0
181 -185 0
116 -185 0
-182 -178 186 0
182 -186 0
178 -186 0
-183 -116 187 0
183 -187 0
116 -187 0
184 185 -188 0
-184 188 0
-185 188 0
186 188 -189 0
-186 189 0
-188 189 0
189 187 -179 0
-189 179 0
-187 179 0
117 190 0
-117 -190 0
118 191 0
-118 -191 0
-102 -190 193 0
102 -193 0
190 -193 0
-122 -117 194 0
122 -194 0
117 -194 0
-105 -190 195 0
105 -195 0
190 -195 0
-122 -117 196 0
122 -196 0
117 -196 0
-193 -191 197 0
193 -197 0
191 -197 0
-194 -118 198 0
194 -198 0
118 -198 0
-195 -191 199 0
195 -199 0
191 -199 0
-196 -118 200 0
196 -200 0
118 -200 0
197 198 -201 0
-197 201 0
-198 201 0
199 201 -202 0
-199 202 0
-201 202 0
202 200 -192 0
-202 192 0
-200 192 0
c Force PIs of 2 ckts to be the same:
1 -102 0
-1 102 0
2 -103 0
-2 103 0
3 -104 0
-3 104 0
4 -105 0
-4 105 0
5 -106 0
-5 106 0
c XOR outputs of 2 ckts:
-18 -119 -203 0
18 119 -203 0
18 -119 203 0
-18 119 203 0
-19 -120 -204 0
19 120 -204 0
19 -120 204 0
-19 120 204 0
c The last OR gate of the miter:
203 204 -205 0
-203 205 0
-204 205 0
205 0
